xclingo version 2.0b16
Reading from /bin/text2ALM/Master/LogicPrograms/listsA/listsANarrative1.tp.lp /bin/text2ALM/Master/Queries/query1.lp trace-rule.lp
Answer: 1
##Explanation: 1.1
  *
  |__"mary is holding [football] at time point 4"
  |  |__"Since mary obtained the football in sentence 3"

##Total Explanations:	1
Models:	1
